data/MCDM/NO_CORR/GEN_FROM_60/10_ITEMS_1000_GEN/K5011W13.KNP.mps
NAME          BLANK   
ROWS
 N  OBJROW
 L  R0000000
COLUMNS
    C0000000  OBJROW     -1000.        R0000000  870.        
    C0000001  OBJROW     -11.          R0000000  436.        
    C0000002  OBJROW     -975.         R0000000  664.        
    C0000003  OBJROW     -604.         R0000000  98.         
    C0000004  OBJROW     -910.         R0000000  134.        
    C0000005  OBJROW     -276.         R0000000  626.        
    C0000006  OBJROW     -253.         R0000000  576.        
    C0000007  OBJROW     -237.         R0000000  250.        
    C0000008  OBJROW     -429.         R0000000  384.        
    C0000009  OBJROW     -53.          R0000000  491.        
    C0000010  OBJROW     -227.         R0000000  618.        
RHS
    RHS       R0000000  14228.      
BOUNDS
 BV BOUND     C0000000  1.          
 BV BOUND     C0000001  1.          
 BV BOUND     C0000002  1.          
 BV BOUND     C0000003  1.          
 BV BOUND     C0000004  1.          
 BV BOUND     C0000005  1.          
 BV BOUND     C0000006  1.          
 BV BOUND     C0000007  1.          
 BV BOUND     C0000008  1.          
 BV BOUND     C0000009  1.          
 BV BOUND     C0000010  1.          
ENDATA
