data/MCDM/NO_CORR/GEN_FROM_60/10_ITEMS_1000_GEN/K5011W13.KNP.txt
N 11
M 12
LC 11
LC 12
LC 13
LC 14
LC 15
LC 16
LC 17
LC 18
LC 19
LC 20
LC 21
LR 1
LR 2
LR 3
LR 4
LR 5
LR 6
LR 7
LR 8
LR 9
LR 10
LR 11
LR 12
LO -1000
LO -11
LO -975
LO -604
LO -910
LO -276
LO -253
LO -237
LO -429
LO -53
LO -227
OS 1
IC 281
IC 16
IC 244
IC 288
IC 266
IC 358
IC 195
IC 488
IC 729
IC 42
IC 575
IB 1741
